TOUR_SECTION
194
19
145
41
28
94
189
117
109
46
17
144
33
101
36
187
22
68
35
88
9
152
91
29
49
57
142
149
80
97
128
141
47
180
120
61
23
11
182
32
197
190
165
107
50
158
131
76
170
73
196
191
90
162
25
53
200
66
98
153
179
124
166
58
100
121
106
26
89
20
24
174
99
13
65
167
130
172
114
12
3
133
69
37
181
77
127
164
63
31
5
175
78
64
116
160
70
103
157
84
52
148
2
132
79
85
87
14
95
10
118
67
115
140
161
60
45
56
83
44
151
8
16
156
92
81
72
150
74
185
159
193
136
27
40
75
137
195
183
62
163
1
173
123
55
105
21
110
34
111
134
199
93
184
192
7
139
18
119
113
138
71
38
126
48
42
51
112
146
188
154
198
104
168
177
82
135
4
86
96
39
176
147
15
59
54
186
129
169
178
6
143
30
43
125
102
108
122
155
171
-1
EOF